param N := 4;
param M := 80;

param nu := 1.0;

param X : 1 2 3 4 :=
1 6.0 2.7 5.1 1.6
2 6.4 2.8 5.6 2.1
3 6.6 2.9 4.6 1.3
4 7.7 2.8 6.7 2.0
5 7.4 2.8 6.1 1.9
6 6.9 3.1 4.9 1.5
7 5.7 2.9 4.2 1.3
8 5.8 2.7 4.1 1.0
9 7.3 2.9 6.3 1.8
10 5.7 2.6 3.5 1.0
11 7.9 3.8 6.4 2.0
12 6.4 3.2 5.3 2.3
13 6.4 2.7 5.3 1.9
14 6.4 3.1 5.5 1.8
15 6.8 2.8 4.8 1.4
16 6.9 3.1 5.4 2.1
17 6.1 2.8 4.0 1.3
18 6.1 2.6 5.6 1.4
19 6.1 3.0 4.9 1.8
20 5.6 2.5 3.9 1.1
21 6.7 3.3 5.7 2.5
22 6.7 3.1 4.4 1.4
23 5.9 3.0 5.1 1.8
24 6.3 2.5 4.9 1.5
25 5.6 2.9 3.6 1.3
26 5.7 2.8 4.1 1.3
27 6.3 2.9 5.6 1.8
28 6.8 3.2 5.9 2.3
29 4.9 2.4 3.3 1.0
30 7.2 3.0 5.8 1.6
31 6.3 3.3 4.7 1.6
32 6.8 3.0 5.5 2.1
33 5.9 3.2 4.8 1.8
34 6.9 3.2 5.7 2.3
35 5.9 3.0 4.2 1.5
36 6.0 2.2 5.0 1.5
37 6.5 2.8 4.6 1.5
38 6.4 2.8 5.6 2.2
39 6.3 3.3 6.0 2.5
40 5.5 2.5 4.0 1.3
41 6.2 2.2 4.5 1.5
42 7.2 3.2 6.0 1.8
43 7.7 3.0 6.1 2.3
44 7.7 2.6 6.9 2.3
45 6.0 2.9 4.5 1.5
46 5.8 2.8 5.1 2.4
47 6.1 3.0 4.6 1.4
48 6.4 3.2 4.5 1.5
49 6.3 3.4 5.6 2.4
50 6.0 3.4 4.5 1.6
51 5.7 2.5 5.0 2.0
52 5.8 2.6 4.0 1.2
53 5.5 2.4 3.7 1.0
54 6.2 3.4 5.4 2.3
55 6.0 2.2 4.0 1.0
56 5.7 2.8 4.5 1.3
57 6.5 3.0 5.2 2.0
58 5.6 2.8 4.9 2.0
59 6.7 2.5 5.8 1.8
60 5.8 2.7 5.1 1.9
61 7.2 3.6 6.1 2.5
62 4.9 2.5 4.5 1.7
63 5.1 2.5 3.0 1.1
64 5.6 3.0 4.5 1.5
65 7.0 3.2 4.7 1.4
66 6.7 3.0 5.2 2.3
67 6.7 3.3 5.7 2.1
68 6.3 2.7 4.9 1.8
69 7.7 3.8 6.7 2.2
70 5.5 2.6 4.4 1.2
71 6.7 3.0 5.0 1.7
72 7.1 3.0 5.9 2.1
73 5.2 2.7 3.9 1.4
74 5.0 2.3 3.3 1.0
75 5.5 2.4 3.8 1.1
76 5.7 3.0 4.2 1.2
77 6.3 2.3 4.4 1.3
78 6.7 3.1 4.7 1.5
79 6.2 2.8 4.8 1.8
80 6.6 3.0 4.4 1.4
;

param y :=
1 -1.0
2 1.0
3 -1.0
4 1.0
5 1.0
6 -1.0
7 -1.0
8 -1.0
9 1.0
10 -1.0
11 1.0
12 1.0
13 1.0
14 1.0
15 -1.0
16 1.0
17 -1.0
18 1.0
19 1.0
20 -1.0
21 1.0
22 -1.0
23 1.0
24 -1.0
25 -1.0
26 -1.0
27 1.0
28 1.0
29 -1.0
30 1.0
31 -1.0
32 1.0
33 -1.0
34 1.0
35 -1.0
36 1.0
37 -1.0
38 1.0
39 1.0
40 -1.0
41 -1.0
42 1.0
43 1.0
44 1.0
45 -1.0
46 1.0
47 -1.0
48 -1.0
49 1.0
50 -1.0
51 1.0
52 -1.0
53 -1.0
54 1.0
55 -1.0
56 -1.0
57 1.0
58 1.0
59 1.0
60 1.0
61 1.0
62 1.0
63 -1.0
64 -1.0
65 -1.0
66 1.0
67 1.0
68 1.0
69 1.0
70 -1.0
71 -1.0
72 1.0
73 -1.0
74 -1.0
75 -1.0
76 -1.0
77 -1.0
78 -1.0
79 1.0
80 -1.0
;

